Route #1: 37 2 44 19 34 14
Route #2: 45 24 52 43 54
Route #3: 35 33 11 20 48 38
Route #4: 31 55 9 28 18 27 1
Route #5: 10 17 46 50 3 40 32
Route #6: 8 15 25 51 21 41 29 53
Route #7: 36 7 23 26 39 16 13 42
Route #8: 6 22 56
Route #9: 5 47 4 30 49 12
Cost 1653.2286623911505